db/data/3084414129480170762526932732663923980.z3.out
-------------------
2500.114138565
